language Essence 1.3

letting class be
        function(1 --> 4, 2 --> 5, 3 --> 3, 4 --> 6, 5 --> 3, 6 --> 10, 7 --> 10, 8 --> 3, 9 --> 8, 10 --> 6, 11 --> 2,
                 12 --> 10, 13 --> 5, 14 --> 8, 15 --> 3, 16 --> 1, 17 --> 5, 18 --> 4, 19 --> 8, 20 --> 10, 21 --> 7,
                 22 --> 8, 23 --> 8, 24 --> 3, 25 --> 6, 26 --> 4, 27 --> 4, 28 --> 3, 29 --> 7, 30 --> 3, 31 --> 3,
                 32 --> 4, 33 --> 6, 34 --> 5, 35 --> 9, 36 --> 8, 37 --> 3, 38 --> 8, 39 --> 8, 40 --> 3, 41 --> 3,
                 42 --> 7, 43 --> 6, 44 --> 4, 45 --> 9, 46 --> 6, 47 --> 8, 48 --> 7, 49 --> 7, 50 --> 7, 51 --> 9,
                 52 --> 3)
letting deck_length be 157
letting deck_width be 14
letting length be
        function(1 --> 1, 2 --> 1, 3 --> 1, 4 --> 1, 5 --> 1, 6 --> 1, 7 --> 1, 8 --> 1, 9 --> 1, 10 --> 1, 11 --> 1,
                 12 --> 1, 13 --> 1, 14 --> 1, 15 --> 1, 16 --> 1, 17 --> 1, 18 --> 1, 19 --> 1, 20 --> 1, 21 --> 1,
                 22 --> 11, 23 --> 2, 24 --> 1, 25 --> 1, 26 --> 1, 27 --> 1, 28 --> 1, 29 --> 1, 30 --> 1, 31 --> 1,
                 32 --> 1, 33 --> 6, 34 --> 1, 35 --> 1, 36 --> 1, 37 --> 2, 38 --> 1, 39 --> 1, 40 --> 1, 41 --> 1,
                 42 --> 1, 43 --> 1, 44 --> 1, 45 --> 1, 46 --> 1, 47 --> 1, 48 --> 1, 49 --> 28, 50 --> 1, 51 --> 1,
                 52 --> 1)
letting n_classes be 10
letting n_containers be 52
letting separation be function({2, 3} --> 10, {2, 7} --> 114)
letting width be
        function(1 --> 7, 2 --> 3, 3 --> 2, 4 --> 5, 5 --> 10, 6 --> 7, 7 --> 4, 8 --> 5, 9 --> 9, 10 --> 13, 11 --> 9,
                 12 --> 8, 13 --> 2, 14 --> 11, 15 --> 2, 16 --> 10, 17 --> 9, 18 --> 1, 19 --> 5, 20 --> 13, 21 --> 10,
                 22 --> 14, 23 --> 13, 24 --> 2, 25 --> 11, 26 --> 9, 27 --> 1, 28 --> 8, 29 --> 2, 30 --> 7, 31 --> 10,
                 32 --> 14, 33 --> 13, 34 --> 2, 35 --> 1, 36 --> 13, 37 --> 8, 38 --> 5, 39 --> 8, 40 --> 4, 41 --> 12,
                 42 --> 7, 43 --> 14, 44 --> 7, 45 --> 6, 46 --> 3, 47 --> 7, 48 --> 14, 49 --> 14, 50 --> 2, 51 --> 6,
                 52 --> 3)
